122 5
10 10 10 10 10 

0 0 0 0 0 0 1 2 
0 0 0 0 0 0 5 3 4 5 7 12 
10 0 0 0 0 1 3 11 9 8 
4 0 0 0 0 4 2 9 8 
3 0 0 0 0 3 1 6 
4 0 0 0 0 3 1 10 
8 0 0 0 0 2 1 8 
7 0 0 0 0 3 1 13 
7 0 0 0 0 3 1 13 
10 0 0 0 0 1 1 13 
2 0 0 0 0 3 1 13 
10 0 0 0 0 2 1 13 
0 0 0 0 0 0 2 14 26 
0 0 0 0 0 0 6 15 16 18 22 23 24 
1 0 1 0 0 0 3 21 20 17 
7 0 2 0 0 0 2 21 19 
2 0 3 0 0 0 1 19 
2 0 2 0 0 0 1 20 
10 0 3 0 0 0 1 25 
3 0 4 0 0 0 1 25 
8 0 2 0 0 0 1 25 
10 0 3 0 0 0 1 25 
8 0 3 0 0 0 1 25 
5 0 2 0 0 0 1 25 
0 0 0 0 0 0 1 38 
0 0 0 0 0 0 2 27 28 
1 1 0 0 0 0 2 36 30 
6 3 0 0 0 0 2 35 29 
5 1 0 0 0 0 5 36 34 33 32 31 
10 1 0 0 0 0 5 35 34 33 32 31 
4 3 0 0 0 0 1 37 
3 2 0 0 0 0 1 37 
9 2 0 0 0 0 1 37 
9 4 0 0 0 0 1 37 
10 4 0 0 0 0 1 37 
9 4 0 0 0 0 1 37 
0 0 0 0 0 0 1 38 
0 0 0 0 0 0 5 39 51 63 75 87 
0 0 0 0 0 0 3 40 41 42 
5 0 0 1 0 0 4 48 45 44 43 
2 0 0 2 0 0 2 48 44 
1 0 0 3 0 0 2 45 44 
2 0 0 5 0 0 3 49 47 46 
2 0 0 2 0 0 2 47 46 
9 0 0 3 0 0 1 46 
7 0 0 2 0 0 1 50 
4 0 0 3 0 0 1 50 
9 0 0 2 0 0 1 50 
2 0 0 2 0 0 1 50 
0 0 0 0 0 0 1 99 
0 0 0 0 0 0 2 52 53 
2 0 1 0 0 0 3 56 55 54 
1 0 4 0 0 0 3 61 56 54 
7 0 2 0 0 0 4 60 59 58 57 
2 0 2 0 0 0 4 61 60 58 57 
6 0 5 0 0 0 3 59 58 57 
1 0 2 0 0 0 1 62 
10 0 1 0 0 0 1 62 
1 0 1 0 0 0 1 62 
7 0 3 0 0 0 1 62 
8 0 4 0 0 0 1 62 
0 0 0 0 0 0 1 99 
0 0 0 0 0 0 2 64 65 
8 0 0 0 0 1 6 71 70 69 68 67 66 
5 0 0 0 0 4 5 70 69 68 67 66 
6 0 0 0 0 3 2 73 72 
7 0 0 0 0 2 2 73 72 
2 0 0 0 0 3 2 73 72 
8 0 0 0 0 1 2 73 72 
8 0 0 0 0 2 1 73 
10 0 0 0 0 3 1 72 
6 0 0 0 0 2 1 74 
5 0 0 0 0 4 1 74 
0 0 0 0 0 0 1 99 
0 0 0 0 0 0 3 76 77 78 
10 0 1 0 0 0 6 85 84 83 82 81 79 
1 0 3 0 0 0 5 85 84 82 81 80 
7 0 1 0 0 0 4 83 82 81 80 
10 0 3 0 0 0 1 80 
4 0 1 0 0 0 1 86 
7 0 4 0 0 0 1 86 
9 0 2 0 0 0 1 86 
9 0 2 0 0 0 1 86 
7 0 3 0 0 0 1 86 
6 0 5 0 0 0 1 86 
0 0 0 0 0 0 1 99 
0 0 0 0 0 0 5 88 89 90 92 97 
3 0 0 0 1 0 3 96 94 91 
8 0 0 0 3 0 2 95 91 
9 0 0 0 3 0 2 95 93 
4 0 0 0 3 0 1 93 
7 0 0 0 1 0 1 94 
9 0 0 0 2 0 1 98 
7 0 0 0 4 0 1 98 
6 0 0 0 2 0 1 98 
2 0 0 0 5 0 1 98 
6 0 0 0 1 0 1 98 
0 0 0 0 0 0 1 99 
0 0 0 0 0 0 5 100 101 103 104 109 
5 1 0 0 0 0 4 108 107 105 102 
8 3 0 0 0 0 2 105 102 
4 2 0 0 0 0 1 106 
6 3 0 0 0 0 1 107 
1 4 0 0 0 0 1 105 
9 2 0 0 0 0 1 110 
10 4 0 0 0 0 1 110 
10 1 0 0 0 0 1 110 
7 1 0 0 0 0 1 110 
1 4 0 0 0 0 1 110 
0 0 0 0 0 0 1 111 
0 0 0 0 0 0 4 112 113 114 116 
2 0 0 1 0 0 5 121 120 119 117 115 
4 0 0 1 0 0 2 117 115 
1 0 0 3 0 0 2 120 117 
2 0 0 3 0 0 1 118 
7 0 0 5 0 0 1 119 
3 0 0 2 0 0 1 122 
8 0 0 2 0 0 1 122 
6 0 0 4 0 0 1 122 
4 0 0 1 0 0 1 122 
5 0 0 3 0 0 1 122 
0 0 0 0 0 0 0 
